language Essence 1.3
letting nnodes be 110
letting nrings be 55
letting capacity be 41
letting demand be 
{{1, 2},
{1, 3},
{1, 6},
{1, 7},
{1, 9},
{1, 10},
{1, 11},
{1, 13},
{1, 14},
{1, 15},
{1, 16},
{1, 17},
{1, 19},
{1, 20},
{1, 22},
{1, 27},
{1, 28},
{1, 29},
{1, 31},
{1, 36},
{1, 38},
{1, 39},
{1, 43},
{1, 47},
{1, 52},
{1, 53},
{1, 57},
{1, 58},
{1, 59},
{1, 61},
{1, 62},
{1, 65},
{1, 69},
{1, 70},
{1, 72},
{1, 73},
{1, 75},
{1, 79},
{1, 81},
{1, 82},
{1, 83},
{1, 86},
{1, 92},
{1, 93},
{1, 94},
{1, 96},
{1, 97},
{1, 101},
{1, 103},
{1, 109},
{1, 110},
{2, 6},
{2, 7},
{2, 8},
{2, 11},
{2, 13},
{2, 17},
{2, 18},
{2, 22},
{2, 23},
{2, 25},
{2, 29},
{2, 30},
{2, 33},
{2, 35},
{2, 36},
{2, 37},
{2, 38},
{2, 39},
{2, 45},
{2, 46},
{2, 47},
{2, 48},
{2, 49},
{2, 53},
{2, 57},
{2, 60},
{2, 62},
{2, 63},
{2, 64},
{2, 65},
{2, 71},
{2, 73},
{2, 74},
{2, 75},
{2, 77},
{2, 78},
{2, 82},
{2, 83},
{2, 87},
{2, 90},
{2, 92},
{2, 93},
{2, 94},
{2, 97},
{2, 100},
{2, 104},
{2, 105},
{2, 107},
{2, 108},
{2, 109},
{2, 110},
{3, 5},
{3, 7},
{3, 8},
{3, 10},
{3, 13},
{3, 16},
{3, 17},
{3, 18},
{3, 20},
{3, 21},
{3, 22},
{3, 26},
{3, 27},
{3, 28},
{3, 30},
{3, 31},
{3, 33},
{3, 36},
{3, 39},
{3, 40},
{3, 44},
{3, 45},
{3, 46},
{3, 48},
{3, 49},
{3, 50},
{3, 51},
{3, 52},
{3, 53},
{3, 54},
{3, 55},
{3, 57},
{3, 62},
{3, 64},
{3, 67},
{3, 68},
{3, 73},
{3, 74},
{3, 75},
{3, 76},
{3, 77},
{3, 78},
{3, 81},
{3, 83},
{3, 84},
{3, 86},
{3, 87},
{3, 88},
{3, 89},
{3, 97},
{3, 99},
{3, 100},
{3, 102},
{3, 106},
{3, 108},
{3, 110},
{4, 6},
{4, 7},
{4, 8},
{4, 9},
{4, 11},
{4, 12},
{4, 13},
{4, 18},
{4, 20},
{4, 21},
{4, 29},
{4, 32},
{4, 36},
{4, 38},
{4, 44},
{4, 45},
{4, 47},
{4, 48},
{4, 51},
{4, 52},
{4, 56},
{4, 58},
{4, 59},
{4, 60},
{4, 62},
{4, 63},
{4, 70},
{4, 73},
{4, 74},
{4, 76},
{4, 77},
{4, 78},
{4, 81},
{4, 82},
{4, 84},
{4, 85},
{4, 87},
{4, 92},
{4, 95},
{4, 96},
{4, 97},
{4, 102},
{4, 105},
{4, 106},
{4, 108},
{4, 109},
{4, 110},
{5, 6},
{5, 8},
{5, 9},
{5, 10},
{5, 11},
{5, 16},
{5, 17},
{5, 18},
{5, 23},
{5, 24},
{5, 25},
{5, 26},
{5, 27},
{5, 34},
{5, 36},
{5, 37},
{5, 38},
{5, 42},
{5, 43},
{5, 47},
{5, 48},
{5, 50},
{5, 51},
{5, 52},
{5, 54},
{5, 60},
{5, 62},
{5, 65},
{5, 69},
{5, 70},
{5, 71},
{5, 73},
{5, 75},
{5, 76},
{5, 78},
{5, 80},
{5, 84},
{5, 86},
{5, 87},
{5, 89},
{5, 90},
{5, 91},
{5, 94},
{5, 95},
{5, 99},
{5, 100},
{5, 104},
{5, 110},
{6, 7},
{6, 8},
{6, 9},
{6, 10},
{6, 12},
{6, 14},
{6, 16},
{6, 18},
{6, 21},
{6, 22},
{6, 24},
{6, 25},
{6, 28},
{6, 29},
{6, 31},
{6, 32},
{6, 33},
{6, 43},
{6, 45},
{6, 46},
{6, 50},
{6, 51},
{6, 52},
{6, 53},
{6, 56},
{6, 57},
{6, 58},
{6, 59},
{6, 64},
{6, 65},
{6, 66},
{6, 68},
{6, 69},
{6, 70},
{6, 76},
{6, 78},
{6, 80},
{6, 81},
{6, 86},
{6, 87},
{6, 88},
{6, 91},
{6, 92},
{6, 93},
{6, 95},
{6, 96},
{6, 97},
{6, 98},
{6, 99},
{6, 101},
{6, 105},
{6, 110},
{7, 8},
{7, 9},
{7, 10},
{7, 12},
{7, 13},
{7, 18},
{7, 19},
{7, 21},
{7, 22},
{7, 23},
{7, 25},
{7, 26},
{7, 32},
{7, 34},
{7, 35},
{7, 40},
{7, 41},
{7, 44},
{7, 46},
{7, 48},
{7, 49},
{7, 50},
{7, 54},
{7, 55},
{7, 58},
{7, 59},
{7, 60},
{7, 62},
{7, 63},
{7, 64},
{7, 65},
{7, 66},
{7, 69},
{7, 73},
{7, 75},
{7, 76},
{7, 80},
{7, 84},
{7, 85},
{7, 86},
{7, 87},
{7, 90},
{7, 91},
{7, 92},
{7, 94},
{7, 97},
{7, 98},
{7, 100},
{7, 101},
{7, 102},
{7, 103},
{7, 104},
{7, 105},
{7, 106},
{7, 107},
{8, 9},
{8, 12},
{8, 14},
{8, 22},
{8, 24},
{8, 25},
{8, 30},
{8, 31},
{8, 46},
{8, 47},
{8, 50},
{8, 54},
{8, 55},
{8, 56},
{8, 62},
{8, 64},
{8, 65},
{8, 66},
{8, 69},
{8, 75},
{8, 77},
{8, 78},
{8, 80},
{8, 81},
{8, 87},
{8, 89},
{8, 91},
{8, 92},
{8, 94},
{8, 97},
{8, 98},
{8, 104},
{8, 105},
{8, 106},
{8, 108},
{9, 10},
{9, 12},
{9, 14},
{9, 15},
{9, 16},
{9, 17},
{9, 18},
{9, 19},
{9, 23},
{9, 24},
{9, 29},
{9, 30},
{9, 33},
{9, 35},
{9, 36},
{9, 37},
{9, 38},
{9, 39},
{9, 40},
{9, 41},
{9, 43},
{9, 46},
{9, 49},
{9, 52},
{9, 53},
{9, 54},
{9, 58},
{9, 68},
{9, 69},
{9, 73},
{9, 78},
{9, 79},
{9, 81},
{9, 82},
{9, 83},
{9, 84},
{9, 86},
{9, 87},
{9, 88},
{9, 89},
{9, 90},
{9, 93},
{9, 94},
{9, 95},
{9, 96},
{9, 98},
{9, 100},
{9, 101},
{9, 102},
{9, 103},
{9, 106},
{9, 107},
{10, 12},
{10, 15},
{10, 18},
{10, 19},
{10, 26},
{10, 31},
{10, 32},
{10, 34},
{10, 37},
{10, 38},
{10, 40},
{10, 41},
{10, 44},
{10, 46},
{10, 50},
{10, 51},
{10, 52},
{10, 53},
{10, 55},
{10, 56},
{10, 59},
{10, 60},
{10, 61},
{10, 65},
{10, 67},
{10, 68},
{10, 71},
{10, 72},
{10, 76},
{10, 79},
{10, 81},
{10, 84},
{10, 87},
{10, 90},
{10, 91},
{10, 93},
{10, 94},
{10, 95},
{10, 97},
{10, 98},
{10, 99},
{10, 101},
{10, 103},
{10, 104},
{10, 105},
{10, 110},
{11, 12},
{11, 15},
{11, 16},
{11, 17},
{11, 23},
{11, 25},
{11, 27},
{11, 28},
{11, 29},
{11, 31},
{11, 32},
{11, 33},
{11, 36},
{11, 37},
{11, 38},
{11, 41},
{11, 43},
{11, 47},
{11, 48},
{11, 53},
{11, 56},
{11, 60},
{11, 64},
{11, 68},
{11, 70},
{11, 73},
{11, 76},
{11, 78},
{11, 79},
{11, 80},
{11, 81},
{11, 82},
{11, 84},
{11, 87},
{11, 88},
{11, 89},
{11, 90},
{11, 92},
{11, 93},
{11, 94},
{11, 96},
{11, 97},
{11, 103},
{11, 104},
{11, 105},
{11, 106},
{11, 107},
{12, 17},
{12, 19},
{12, 20},
{12, 22},
{12, 23},
{12, 24},
{12, 30},
{12, 32},
{12, 37},
{12, 39},
{12, 41},
{12, 42},
{12, 43},
{12, 44},
{12, 46},
{12, 47},
{12, 49},
{12, 50},
{12, 51},
{12, 52},
{12, 53},
{12, 57},
{12, 59},
{12, 63},
{12, 65},
{12, 73},
{12, 74},
{12, 77},
{12, 83},
{12, 87},
{12, 88},
{12, 91},
{12, 92},
{12, 95},
{12, 96},
{12, 97},
{12, 101},
{12, 103},
{12, 104},
{12, 106},
{12, 108},
{12, 109},
{13, 14},
{13, 18},
{13, 19},
{13, 20},
{13, 23},
{13, 24},
{13, 25},
{13, 28},
{13, 30},
{13, 31},
{13, 32},
{13, 33},
{13, 36},
{13, 37},
{13, 39},
{13, 40},
{13, 42},
{13, 44},
{13, 46},
{13, 49},
{13, 50},
{13, 51},
{13, 52},
{13, 53},
{13, 54},
{13, 55},
{13, 56},
{13, 61},
{13, 62},
{13, 63},
{13, 65},
{13, 66},
{13, 68},
{13, 69},
{13, 73},
{13, 75},
{13, 76},
{13, 77},
{13, 78},
{13, 80},
{13, 82},
{13, 83},
{13, 84},
{13, 85},
{13, 88},
{13, 89},
{13, 91},
{13, 94},
{13, 96},
{13, 97},
{13, 102},
{13, 103},
{13, 104},
{13, 105},
{13, 106},
{13, 107},
{13, 110},
{14, 15},
{14, 18},
{14, 24},
{14, 25},
{14, 26},
{14, 28},
{14, 29},
{14, 32},
{14, 34},
{14, 35},
{14, 37},
{14, 40},
{14, 42},
{14, 43},
{14, 45},
{14, 50},
{14, 51},
{14, 54},
{14, 56},
{14, 59},
{14, 63},
{14, 65},
{14, 66},
{14, 67},
{14, 68},
{14, 71},
{14, 74},
{14, 75},
{14, 79},
{14, 82},
{14, 84},
{14, 86},
{14, 87},
{14, 88},
{14, 89},
{14, 91},
{14, 92},
{14, 93},
{14, 94},
{14, 101},
{14, 102},
{14, 104},
{14, 107},
{15, 18},
{15, 19},
{15, 20},
{15, 22},
{15, 24},
{15, 29},
{15, 32},
{15, 33},
{15, 35},
{15, 36},
{15, 37},
{15, 38},
{15, 41},
{15, 42},
{15, 47},
{15, 48},
{15, 49},
{15, 51},
{15, 53},
{15, 57},
{15, 59},
{15, 60},
{15, 61},
{15, 62},
{15, 63},
{15, 66},
{15, 67},
{15, 69},
{15, 70},
{15, 74},
{15, 75},
{15, 76},
{15, 77},
{15, 80},
{15, 81},
{15, 82},
{15, 84},
{15, 85},
{15, 86},
{15, 87},
{15, 92},
{15, 93},
{15, 95},
{15, 97},
{15, 103},
{15, 104},
{15, 106},
{15, 107},
{15, 108},
{15, 109},
{16, 23},
{16, 24},
{16, 25},
{16, 26},
{16, 27},
{16, 34},
{16, 35},
{16, 36},
{16, 37},
{16, 39},
{16, 41},
{16, 42},
{16, 43},
{16, 44},
{16, 46},
{16, 47},
{16, 51},
{16, 54},
{16, 55},
{16, 57},
{16, 60},
{16, 61},
{16, 62},
{16, 65},
{16, 66},
{16, 67},
{16, 68},
{16, 71},
{16, 72},
{16, 73},
{16, 76},
{16, 77},
{16, 80},
{16, 82},
{16, 83},
{16, 84},
{16, 88},
{16, 90},
{16, 93},
{16, 94},
{16, 99},
{16, 100},
{16, 102},
{16, 103},
{16, 104},
{16, 105},
{16, 108},
{16, 109},
{16, 110},
{17, 19},
{17, 21},
{17, 26},
{17, 27},
{17, 29},
{17, 30},
{17, 31},
{17, 34},
{17, 38},
{17, 40},
{17, 42},
{17, 44},
{17, 47},
{17, 48},
{17, 49},
{17, 50},
{17, 52},
{17, 53},
{17, 54},
{17, 55},
{17, 56},
{17, 57},
{17, 58},
{17, 59},
{17, 62},
{17, 63},
{17, 64},
{17, 66},
{17, 70},
{17, 71},
{17, 73},
{17, 75},
{17, 83},
{17, 86},
{17, 87},
{17, 88},
{17, 91},
{17, 92},
{17, 93},
{17, 96},
{17, 97},
{17, 98},
{17, 102},
{17, 103},
{17, 104},
{17, 107},
{17, 109},
{18, 20},
{18, 22},
{18, 24},
{18, 25},
{18, 26},
{18, 31},
{18, 32},
{18, 34},
{18, 35},
{18, 38},
{18, 40},
{18, 41},
{18, 45},
{18, 46},
{18, 48},
{18, 52},
{18, 55},
{18, 56},
{18, 58},
{18, 62},
{18, 64},
{18, 66},
{18, 68},
{18, 69},
{18, 70},
{18, 76},
{18, 77},
{18, 78},
{18, 79},
{18, 83},
{18, 88},
{18, 90},
{18, 91},
{18, 92},
{18, 93},
{18, 94},
{18, 95},
{18, 96},
{18, 97},
{18, 100},
{18, 101},
{18, 108},
{18, 109},
{19, 20},
{19, 21},
{19, 22},
{19, 23},
{19, 25},
{19, 26},
{19, 28},
{19, 29},
{19, 31},
{19, 33},
{19, 34},
{19, 37},
{19, 38},
{19, 39},
{19, 40},
{19, 42},
{19, 45},
{19, 46},
{19, 48},
{19, 53},
{19, 55},
{19, 57},
{19, 58},
{19, 59},
{19, 61},
{19, 62},
{19, 64},
{19, 67},
{19, 70},
{19, 71},
{19, 73},
{19, 74},
{19, 78},
{19, 81},
{19, 82},
{19, 83},
{19, 84},
{19, 85},
{19, 87},
{19, 90},
{19, 92},
{19, 93},
{19, 94},
{19, 96},
{19, 97},
{19, 99},
{19, 100},
{19, 103},
{19, 104},
{19, 106},
{19, 107},
{19, 109},
{19, 110},
{20, 23},
{20, 24},
{20, 26},
{20, 28},
{20, 29},
{20, 31},
{20, 32},
{20, 38},
{20, 40},
{20, 42},
{20, 45},
{20, 46},
{20, 50},
{20, 52},
{20, 55},
{20, 59},
{20, 60},
{20, 61},
{20, 62},
{20, 63},
{20, 64},
{20, 74},
{20, 76},
{20, 78},
{20, 79},
{20, 82},
{20, 85},
{20, 86},
{20, 90},
{20, 95},
{20, 97},
{20, 100},
{20, 101},
{20, 102},
{20, 105},
{20, 107},
{20, 109},
{21, 22},
{21, 24},
{21, 28},
{21, 30},
{21, 35},
{21, 36},
{21, 38},
{21, 39},
{21, 40},
{21, 45},
{21, 47},
{21, 49},
{21, 50},
{21, 57},
{21, 58},
{21, 59},
{21, 62},
{21, 63},
{21, 64},
{21, 66},
{21, 67},
{21, 69},
{21, 70},
{21, 72},
{21, 73},
{21, 76},
{21, 80},
{21, 82},
{21, 83},
{21, 86},
{21, 89},
{21, 90},
{21, 91},
{21, 93},
{21, 95},
{21, 96},
{21, 99},
{21, 102},
{21, 104},
{21, 105},
{21, 107},
{22, 28},
{22, 29},
{22, 30},
{22, 31},
{22, 32},
{22, 34},
{22, 38},
{22, 39},
{22, 40},
{22, 46},
{22, 47},
{22, 49},
{22, 50},
{22, 57},
{22, 58},
{22, 61},
{22, 62},
{22, 63},
{22, 64},
{22, 65},
{22, 66},
{22, 67},
{22, 68},
{22, 69},
{22, 71},
{22, 72},
{22, 73},
{22, 75},
{22, 76},
{22, 77},
{22, 78},
{22, 79},
{22, 86},
{22, 87},
{22, 88},
{22, 89},
{22, 90},
{22, 91},
{22, 92},
{22, 93},
{22, 94},
{22, 95},
{22, 97},
{22, 98},
{22, 99},
{22, 101},
{22, 104},
{22, 105},
{22, 106},
{22, 110},
{23, 24},
{23, 25},
{23, 26},
{23, 29},
{23, 30},
{23, 31},
{23, 32},
{23, 35},
{23, 36},
{23, 37},
{23, 38},
{23, 39},
{23, 41},
{23, 42},
{23, 44},
{23, 45},
{23, 47},
{23, 48},
{23, 49},
{23, 50},
{23, 51},
{23, 54},
{23, 55},
{23, 56},
{23, 59},
{23, 60},
{23, 63},
{23, 64},
{23, 65},
{23, 66},
{23, 67},
{23, 69},
{23, 71},
{23, 72},
{23, 74},
{23, 75},
{23, 77},
{23, 78},
{23, 79},
{23, 80},
{23, 81},
{23, 83},
{23, 84},
{23, 85},
{23, 86},
{23, 89},
{23, 90},
{23, 91},
{23, 92},
{23, 94},
{23, 96},
{23, 97},
{23, 101},
{23, 102},
{23, 107},
{23, 109},
{24, 29},
{24, 30},
{24, 32},
{24, 33},
{24, 34},
{24, 35},
{24, 36},
{24, 37},
{24, 38},
{24, 41},
{24, 43},
{24, 44},
{24, 45},
{24, 47},
{24, 51},
{24, 52},
{24, 53},
{24, 54},
{24, 57},
{24, 59},
{24, 60},
{24, 61},
{24, 65},
{24, 66},
{24, 67},
{24, 70},
{24, 72},
{24, 73},
{24, 74},
{24, 75},
{24, 76},
{24, 77},
{24, 78},
{24, 80},
{24, 81},
{24, 83},
{24, 84},
{24, 87},
{24, 90},
{24, 93},
{24, 94},
{24, 95},
{24, 97},
{24, 102},
{24, 105},
{24, 106},
{24, 109},
{25, 26},
{25, 31},
{25, 32},
{25, 33},
{25, 35},
{25, 36},
{25, 37},
{25, 42},
{25, 44},
{25, 45},
{25, 46},
{25, 47},
{25, 49},
{25, 51},
{25, 52},
{25, 53},
{25, 54},
{25, 56},
{25, 60},
{25, 63},
{25, 65},
{25, 67},
{25, 68},
{25, 70},
{25, 71},
{25, 73},
{25, 75},
{25, 76},
{25, 77},
{25, 79},
{25, 82},
{25, 84},
{25, 85},
{25, 87},
{25, 88},
{25, 89},
{25, 90},
{25, 91},
{25, 93},
{25, 94},
{25, 95},
{25, 97},
{25, 100},
{25, 106},
{25, 110},
{26, 27},
{26, 30},
{26, 31},
{26, 33},
{26, 34},
{26, 35},
{26, 36},
{26, 37},
{26, 42},
{26, 44},
{26, 48},
{26, 49},
{26, 50},
{26, 53},
{26, 54},
{26, 56},
{26, 57},
{26, 58},
{26, 61},
{26, 62},
{26, 66},
{26, 67},
{26, 69},
{26, 70},
{26, 71},
{26, 72},
{26, 73},
{26, 75},
{26, 77},
{26, 79},
{26, 82},
{26, 84},
{26, 86},
{26, 87},
{26, 91},
{26, 92},
{26, 94},
{26, 95},
{26, 97},
{26, 98},
{26, 102},
{26, 105},
{26, 106},
{27, 28},
{27, 29},
{27, 32},
{27, 33},
{27, 35},
{27, 37},
{27, 38},
{27, 39},
{27, 40},
{27, 41},
{27, 43},
{27, 44},
{27, 45},
{27, 47},
{27, 48},
{27, 54},
{27, 55},
{27, 58},
{27, 60},
{27, 61},
{27, 62},
{27, 64},
{27, 66},
{27, 69},
{27, 70},
{27, 74},
{27, 76},
{27, 79},
{27, 80},
{27, 83},
{27, 88},
{27, 92},
{27, 93},
{27, 95},
{27, 97},
{27, 99},
{27, 102},
{27, 104},
{27, 105},
{28, 30},
{28, 31},
{28, 33},
{28, 34},
{28, 35},
{28, 37},
{28, 38},
{28, 39},
{28, 41},
{28, 42},
{28, 44},
{28, 46},
{28, 48},
{28, 50},
{28, 51},
{28, 52},
{28, 55},
{28, 56},
{28, 57},
{28, 58},
{28, 59},
{28, 66},
{28, 68},
{28, 70},
{28, 71},
{28, 72},
{28, 73},
{28, 75},
{28, 77},
{28, 79},
{28, 82},
{28, 90},
{28, 92},
{28, 94},
{28, 96},
{28, 97},
{28, 104},
{28, 105},
{28, 106},
{28, 107},
{28, 109},
{29, 30},
{29, 32},
{29, 33},
{29, 34},
{29, 35},
{29, 37},
{29, 38},
{29, 39},
{29, 42},
{29, 48},
{29, 50},
{29, 51},
{29, 52},
{29, 53},
{29, 54},
{29, 55},
{29, 57},
{29, 59},
{29, 60},
{29, 64},
{29, 68},
{29, 70},
{29, 71},
{29, 72},
{29, 74},
{29, 75},
{29, 76},
{29, 78},
{29, 79},
{29, 81},
{29, 86},
{29, 89},
{29, 91},
{29, 94},
{29, 98},
{29, 99},
{29, 105},
{29, 107},
{29, 109},
{29, 110},
{30, 32},
{30, 33},
{30, 34},
{30, 38},
{30, 39},
{30, 41},
{30, 42},
{30, 43},
{30, 48},
{30, 49},
{30, 50},
{30, 51},
{30, 55},
{30, 56},
{30, 58},
{30, 60},
{30, 63},
{30, 69},
{30, 71},
{30, 73},
{30, 75},
{30, 76},
{30, 77},
{30, 79},
{30, 80},
{30, 83},
{30, 84},
{30, 85},
{30, 87},
{30, 88},
{30, 89},
{30, 91},
{30, 92},
{30, 94},
{30, 95},
{30, 96},
{30, 98},
{30, 99},
{30, 100},
{30, 101},
{30, 102},
{30, 103},
{30, 105},
{30, 106},
{30, 107},
{30, 108},
{30, 110},
{31, 32},
{31, 33},
{31, 35},
{31, 36},
{31, 37},
{31, 41},
{31, 42},
{31, 43},
{31, 44},
{31, 45},
{31, 46},
{31, 47},
{31, 48},
{31, 49},
{31, 53},
{31, 58},
{31, 59},
{31, 61},
{31, 65},
{31, 66},
{31, 67},
{31, 69},
{31, 70},
{31, 71},
{31, 72},
{31, 74},
{31, 75},
{31, 76},
{31, 84},
{31, 85},
{31, 86},
{31, 89},
{31, 91},
{31, 93},
{31, 94},
{31, 95},
{31, 97},
{31, 104},
{31, 105},
{31, 106},
{31, 107},
{31, 108},
{32, 35},
{32, 36},
{32, 37},
{32, 41},
{32, 43},
{32, 44},
{32, 45},
{32, 46},
{32, 47},
{32, 49},
{32, 51},
{32, 52},
{32, 53},
{32, 54},
{32, 55},
{32, 57},
{32, 61},
{32, 62},
{32, 65},
{32, 66},
{32, 70},
{32, 71},
{32, 72},
{32, 74},
{32, 76},
{32, 78},
{32, 79},
{32, 80},
{32, 81},
{32, 82},
{32, 83},
{32, 87},
{32, 88},
{32, 89},
{32, 90},
{32, 91},
{32, 99},
{32, 102},
{32, 104},
{32, 107},
{32, 109},
{32, 110},
{33, 38},
{33, 41},
{33, 42},
{33, 43},
{33, 44},
{33, 45},
{33, 47},
{33, 49},
{33, 50},
{33, 53},
{33, 54},
{33, 56},
{33, 57},
{33, 58},
{33, 61},
{33, 64},
{33, 67},
{33, 69},
{33, 71},
{33, 72},
{33, 75},
{33, 76},
{33, 78},
{33, 80},
{33, 81},
{33, 88},
{33, 90},
{33, 92},
{33, 93},
{33, 94},
{33, 95},
{33, 97},
{33, 101},
{33, 102},
{33, 106},
{33, 107},
{33, 108},
{33, 109},
{33, 110},
{34, 37},
{34, 38},
{34, 39},
{34, 44},
{34, 48},
{34, 52},
{34, 53},
{34, 55},
{34, 56},
{34, 58},
{34, 59},
{34, 61},
{34, 64},
{34, 66},
{34, 68},
{34, 72},
{34, 74},
{34, 76},
{34, 82},
{34, 83},
{34, 84},
{34, 91},
{34, 93},
{34, 96},
{34, 99},
{34, 101},
{34, 104},
{34, 105},
{34, 108},
{34, 110},
{35, 39},
{35, 43},
{35, 44},
{35, 45},
{35, 48},
{35, 49},
{35, 54},
{35, 56},
{35, 57},
{35, 59},
{35, 60},
{35, 65},
{35, 68},
{35, 70},
{35, 73},
{35, 76},
{35, 77},
{35, 80},
{35, 84},
{35, 85},
{35, 86},
{35, 89},
{35, 91},
{35, 95},
{35, 96},
{35, 98},
{35, 99},
{35, 100},
{35, 101},
{35, 106},
{35, 107},
{35, 108},
{35, 110},
{36, 40},
{36, 43},
{36, 44},
{36, 47},
{36, 51},
{36, 53},
{36, 58},
{36, 59},
{36, 60},
{36, 61},
{36, 63},
{36, 65},
{36, 71},
{36, 72},
{36, 74},
{36, 75},
{36, 79},
{36, 80},
{36, 81},
{36, 82},
{36, 83},
{36, 84},
{36, 85},
{36, 86},
{36, 89},
{36, 91},
{36, 94},
{36, 95},
{36, 96},
{36, 97},
{36, 98},
{36, 99},
{36, 100},
{36, 102},
{36, 103},
{36, 106},
{36, 110},
{37, 39},
{37, 40},
{37, 41},
{37, 46},
{37, 47},
{37, 49},
{37, 51},
{37, 52},
{37, 54},
{37, 56},
{37, 60},
{37, 64},
{37, 75},
{37, 78},
{37, 81},
{37, 82},
{37, 84},
{37, 87},
{37, 89},
{37, 90},
{37, 92},
{37, 93},
{37, 94},
{37, 98},
{37, 101},
{37, 102},
{37, 105},
{37, 109},
{38, 40},
{38, 41},
{38, 43},
{38, 45},
{38, 47},
{38, 50},
{38, 54},
{38, 55},
{38, 57},
{38, 58},
{38, 61},
{38, 63},
{38, 64},
{38, 66},
{38, 68},
{38, 70},
{38, 72},
{38, 74},
{38, 75},
{38, 77},
{38, 79},
{38, 80},
{38, 87},
{38, 91},
{38, 93},
{38, 95},
{38, 98},
{38, 102},
{38, 105},
{38, 106},
{38, 107},
{38, 110},
{39, 40},
{39, 41},
{39, 42},
{39, 44},
{39, 45},
{39, 46},
{39, 48},
{39, 49},
{39, 51},
{39, 55},
{39, 57},
{39, 59},
{39, 60},
{39, 62},
{39, 64},
{39, 66},
{39, 67},
{39, 68},
{39, 70},
{39, 71},
{39, 74},
{39, 75},
{39, 76},
{39, 77},
{39, 80},
{39, 83},
{39, 84},
{39, 85},
{39, 86},
{39, 87},
{39, 88},
{39, 90},
{39, 92},
{39, 95},
{39, 96},
{39, 103},
{39, 107},
{39, 109},
{40, 42},
{40, 43},
{40, 46},
{40, 48},
{40, 50},
{40, 52},
{40, 53},
{40, 54},
{40, 55},
{40, 56},
{40, 57},
{40, 59},
{40, 61},
{40, 62},
{40, 63},
{40, 64},
{40, 65},
{40, 67},
{40, 68},
{40, 69},
{40, 71},
{40, 72},
{40, 75},
{40, 77},
{40, 78},
{40, 79},
{40, 82},
{40, 84},
{40, 91},
{40, 93},
{40, 94},
{40, 97},
{40, 99},
{40, 102},
{40, 106},
{40, 108},
{40, 110},
{41, 42},
{41, 43},
{41, 44},
{41, 47},
{41, 48},
{41, 55},
{41, 58},
{41, 59},
{41, 60},
{41, 62},
{41, 64},
{41, 65},
{41, 66},
{41, 67},
{41, 71},
{41, 72},
{41, 73},
{41, 75},
{41, 76},
{41, 77},
{41, 79},
{41, 82},
{41, 83},
{41, 84},
{41, 85},
{41, 86},
{41, 87},
{41, 89},
{41, 90},
{41, 92},
{41, 93},
{41, 96},
{41, 98},
{41, 101},
{41, 102},
{41, 103},
{41, 104},
{41, 105},
{41, 106},
{41, 109},
{41, 110},
{42, 43},
{42, 45},
{42, 49},
{42, 52},
{42, 53},
{42, 55},
{42, 56},
{42, 57},
{42, 58},
{42, 60},
{42, 61},
{42, 64},
{42, 66},
{42, 73},
{42, 74},
{42, 78},
{42, 80},
{42, 81},
{42, 84},
{42, 85},
{42, 86},
{42, 87},
{42, 88},
{42, 90},
{42, 91},
{42, 92},
{42, 93},
{42, 94},
{42, 98},
{42, 99},
{42, 100},
{42, 101},
{42, 102},
{42, 103},
{42, 104},
{42, 106},
{42, 107},
{42, 110},
{43, 47},
{43, 50},
{43, 51},
{43, 52},
{43, 56},
{43, 57},
{43, 58},
{43, 59},
{43, 60},
{43, 61},
{43, 62},
{43, 63},
{43, 64},
{43, 67},
{43, 71},
{43, 73},
{43, 75},
{43, 76},
{43, 77},
{43, 78},
{43, 79},
{43, 81},
{43, 89},
{43, 90},
{43, 93},
{43, 94},
{43, 95},
{43, 97},
{43, 98},
{43, 99},
{43, 100},
{43, 101},
{43, 102},
{43, 103},
{43, 105},
{43, 106},
{43, 107},
{43, 108},
{43, 109},
{43, 110},
{44, 45},
{44, 47},
{44, 48},
{44, 49},
{44, 50},
{44, 51},
{44, 53},
{44, 57},
{44, 59},
{44, 62},
{44, 63},
{44, 65},
{44, 66},
{44, 67},
{44, 72},
{44, 74},
{44, 75},
{44, 78},
{44, 79},
{44, 80},
{44, 81},
{44, 82},
{44, 83},
{44, 84},
{44, 88},
{44, 90},
{44, 92},
{44, 93},
{44, 94},
{44, 95},
{44, 96},
{44, 98},
{44, 101},
{44, 103},
{44, 104},
{44, 106},
{44, 107},
{45, 46},
{45, 47},
{45, 48},
{45, 49},
{45, 50},
{45, 51},
{45, 52},
{45, 53},
{45, 55},
{45, 56},
{45, 63},
{45, 66},
{45, 67},
{45, 72},
{45, 73},
{45, 76},
{45, 77},
{45, 79},
{45, 83},
{45, 84},
{45, 86},
{45, 87},
{45, 95},
{45, 96},
{45, 102},
{45, 106},
{45, 109},
{45, 110},
{46, 47},
{46, 48},
{46, 53},
{46, 54},
{46, 56},
{46, 57},
{46, 58},
{46, 59},
{46, 60},
{46, 61},
{46, 64},
{46, 68},
{46, 69},
{46, 71},
{46, 72},
{46, 75},
{46, 77},
{46, 80},
{46, 81},
{46, 82},
{46, 83},
{46, 84},
{46, 85},
{46, 87},
{46, 89},
{46, 90},
{46, 91},
{46, 95},
{46, 96},
{46, 99},
{46, 100},
{46, 107},
{46, 108},
{46, 109},
{46, 110},
{47, 49},
{47, 53},
{47, 54},
{47, 55},
{47, 56},
{47, 57},
{47, 59},
{47, 62},
{47, 67},
{47, 69},
{47, 72},
{47, 73},
{47, 75},
{47, 76},
{47, 77},
{47, 78},
{47, 80},
{47, 82},
{47, 84},
{47, 85},
{47, 88},
{47, 90},
{47, 91},
{47, 94},
{47, 95},
{47, 96},
{47, 97},
{47, 98},
{47, 102},
{47, 103},
{47, 107},
{47, 108},
{47, 109},
{47, 110},
{48, 50},
{48, 53},
{48, 54},
{48, 55},
{48, 57},
{48, 59},
{48, 60},
{48, 63},
{48, 65},
{48, 67},
{48, 69},
{48, 70},
{48, 75},
{48, 78},
{48, 81},
{48, 82},
{48, 84},
{48, 85},
{48, 89},
{48, 90},
{48, 94},
{48, 96},
{48, 97},
{48, 98},
{48, 99},
{48, 100},
{48, 103},
{48, 104},
{48, 105},
{48, 107},
{48, 109},
{48, 110},
{49, 51},
{49, 54},
{49, 56},
{49, 58},
{49, 59},
{49, 60},
{49, 61},
{49, 62},
{49, 65},
{49, 67},
{49, 69},
{49, 70},
{49, 71},
{49, 72},
{49, 73},
{49, 74},
{49, 76},
{49, 78},
{49, 79},
{49, 81},
{49, 83},
{49, 84},
{49, 89},
{49, 95},
{49, 96},
{49, 99},
{49, 101},
{49, 103},
{49, 104},
{49, 105},
{49, 106},
{49, 107},
{49, 109},
{50, 51},
{50, 54},
{50, 56},
{50, 57},
{50, 69},
{50, 70},
{50, 74},
{50, 75},
{50, 76},
{50, 77},
{50, 79},
{50, 80},
{50, 81},
{50, 84},
{50, 85},
{50, 86},
{50, 93},
{50, 94},
{50, 98},
{50, 99},
{50, 100},
{50, 101},
{50, 104},
{50, 105},
{50, 107},
{50, 108},
{50, 109},
{50, 110},
{51, 53},
{51, 54},
{51, 55},
{51, 57},
{51, 59},
{51, 62},
{51, 63},
{51, 72},
{51, 74},
{51, 79},
{51, 83},
{51, 84},
{51, 85},
{51, 88},
{51, 89},
{51, 92},
{51, 93},
{51, 94},
{51, 95},
{51, 97},
{51, 100},
{51, 101},
{51, 104},
{51, 106},
{52, 53},
{52, 54},
{52, 55},
{52, 56},
{52, 63},
{52, 64},
{52, 65},
{52, 66},
{52, 67},
{52, 68},
{52, 70},
{52, 71},
{52, 73},
{52, 75},
{52, 77},
{52, 79},
{52, 84},
{52, 85},
{52, 86},
{52, 87},
{52, 89},
{52, 94},
{52, 96},
{52, 97},
{52, 98},
{52, 99},
{52, 100},
{52, 101},
{52, 103},
{52, 107},
{52, 108},
{52, 109},
{52, 110},
{53, 55},
{53, 56},
{53, 57},
{53, 58},
{53, 59},
{53, 62},
{53, 63},
{53, 69},
{53, 71},
{53, 73},
{53, 78},
{53, 79},
{53, 81},
{53, 84},
{53, 86},
{53, 87},
{53, 93},
{53, 94},
{53, 96},
{53, 97},
{53, 98},
{53, 99},
{53, 103},
{53, 105},
{53, 106},
{53, 107},
{53, 109},
{53, 110},
{54, 55},
{54, 57},
{54, 59},
{54, 62},
{54, 65},
{54, 66},
{54, 67},
{54, 68},
{54, 70},
{54, 73},
{54, 75},
{54, 77},
{54, 78},
{54, 80},
{54, 81},
{54, 82},
{54, 84},
{54, 86},
{54, 89},
{54, 90},
{54, 91},
{54, 92},
{54, 93},
{54, 95},
{54, 98},
{54, 101},
{54, 102},
{54, 104},
{54, 107},
{54, 110},
{55, 56},
{55, 57},
{55, 58},
{55, 59},
{55, 60},
{55, 62},
{55, 64},
{55, 65},
{55, 66},
{55, 68},
{55, 70},
{55, 72},
{55, 75},
{55, 76},
{55, 77},
{55, 80},
{55, 82},
{55, 84},
{55, 88},
{55, 90},
{55, 91},
{55, 92},
{55, 93},
{55, 95},
{55, 97},
{55, 100},
{55, 102},
{55, 105},
{55, 108},
{56, 58},
{56, 60},
{56, 62},
{56, 67},
{56, 69},
{56, 71},
{56, 73},
{56, 75},
{56, 77},
{56, 78},
{56, 80},
{56, 81},
{56, 82},
{56, 86},
{56, 87},
{56, 88},
{56, 89},
{56, 91},
{56, 92},
{56, 93},
{56, 94},
{56, 96},
{56, 97},
{56, 99},
{56, 100},
{56, 101},
{56, 103},
{56, 104},
{56, 106},
{56, 109},
{56, 110},
{57, 59},
{57, 60},
{57, 61},
{57, 62},
{57, 63},
{57, 64},
{57, 69},
{57, 70},
{57, 87},
{57, 88},
{57, 89},
{57, 91},
{57, 94},
{57, 97},
{57, 98},
{57, 99},
{57, 100},
{57, 103},
{57, 104},
{57, 105},
{57, 109},
{58, 60},
{58, 63},
{58, 64},
{58, 65},
{58, 66},
{58, 68},
{58, 69},
{58, 72},
{58, 73},
{58, 76},
{58, 77},
{58, 81},
{58, 82},
{58, 83},
{58, 85},
{58, 86},
{58, 87},
{58, 89},
{58, 91},
{58, 92},
{58, 93},
{58, 97},
{58, 98},
{58, 99},
{58, 100},
{58, 101},
{58, 104},
{58, 105},
{58, 106},
{59, 60},
{59, 64},
{59, 67},
{59, 69},
{59, 72},
{59, 73},
{59, 75},
{59, 76},
{59, 80},
{59, 83},
{59, 85},
{59, 86},
{59, 87},
{59, 88},
{59, 89},
{59, 91},
{59, 95},
{59, 97},
{59, 100},
{59, 102},
{59, 104},
{59, 107},
{59, 109},
{59, 110},
{60, 61},
{60, 62},
{60, 64},
{60, 66},
{60, 75},
{60, 78},
{60, 79},
{60, 80},
{60, 83},
{60, 85},
{60, 90},
{60, 91},
{60, 96},
{60, 101},
{60, 103},
{60, 106},
{60, 107},
{60, 109},
{61, 62},
{61, 65},
{61, 66},
{61, 68},
{61, 69},
{61, 70},
{61, 72},
{61, 73},
{61, 74},
{61, 76},
{61, 78},
{61, 79},
{61, 80},
{61, 84},
{61, 85},
{61, 86},
{61, 87},
{61, 90},
{61, 91},
{61, 93},
{61, 94},
{61, 95},
{61, 96},
{61, 97},
{61, 98},
{61, 100},
{61, 105},
{61, 106},
{61, 110},
{62, 63},
{62, 65},
{62, 66},
{62, 71},
{62, 74},
{62, 80},
{62, 82},
{62, 83},
{62, 84},
{62, 85},
{62, 86},
{62, 88},
{62, 90},
{62, 96},
{62, 97},
{62, 99},
{62, 101},
{62, 102},
{62, 104},
{62, 106},
{62, 107},
{62, 108},
{62, 110},
{63, 65},
{63, 67},
{63, 69},
{63, 70},
{63, 72},
{63, 73},
{63, 75},
{63, 76},
{63, 78},
{63, 80},
{63, 82},
{63, 85},
{63, 87},
{63, 88},
{63, 89},
{63, 91},
{63, 93},
{63, 94},
{63, 99},
{63, 100},
{63, 101},
{63, 105},
{63, 106},
{63, 108},
{63, 110},
{64, 65},
{64, 66},
{64, 71},
{64, 76},
{64, 80},
{64, 81},
{64, 83},
{64, 84},
{64, 88},
{64, 89},
{64, 90},
{64, 92},
{64, 93},
{64, 94},
{64, 96},
{64, 97},
{64, 99},
{64, 100},
{64, 102},
{64, 103},
{64, 104},
{64, 105},
{64, 109},
{65, 66},
{65, 67},
{65, 68},
{65, 69},
{65, 73},
{65, 74},
{65, 75},
{65, 76},
{65, 78},
{65, 80},
{65, 81},
{65, 87},
{65, 89},
{65, 91},
{65, 92},
{65, 93},
{65, 97},
{65, 99},
{65, 101},
{65, 102},
{65, 103},
{65, 108},
{65, 110},
{66, 67},
{66, 68},
{66, 70},
{66, 77},
{66, 78},
{66, 79},
{66, 80},
{66, 81},
{66, 82},
{66, 84},
{66, 87},
{66, 88},
{66, 89},
{66, 91},
{66, 97},
{66, 98},
{66, 99},
{66, 101},
{66, 103},
{66, 104},
{66, 105},
{66, 106},
{66, 109},
{66, 110},
{67, 68},
{67, 70},
{67, 71},
{67, 72},
{67, 73},
{67, 74},
{67, 77},
{67, 78},
{67, 80},
{67, 81},
{67, 82},
{67, 83},
{67, 84},
{67, 86},
{67, 88},
{67, 89},
{67, 90},
{67, 91},
{67, 92},
{67, 100},
{67, 101},
{67, 102},
{67, 103},
{67, 104},
{67, 107},
{67, 108},
{67, 109},
{67, 110},
{68, 69},
{68, 71},
{68, 72},
{68, 76},
{68, 78},
{68, 79},
{68, 80},
{68, 82},
{68, 86},
{68, 87},
{68, 88},
{68, 89},
{68, 91},
{68, 93},
{68, 94},
{68, 95},
{68, 96},
{68, 97},
{68, 102},
{68, 103},
{68, 107},
{68, 108},
{69, 70},
{69, 73},
{69, 74},
{69, 77},
{69, 78},
{69, 84},
{69, 90},
{69, 91},
{69, 99},
{69, 100},
{69, 101},
{69, 109},
{70, 71},
{70, 72},
{70, 74},
{70, 76},
{70, 80},
{70, 81},
{70, 82},
{70, 84},
{70, 85},
{70, 86},
{70, 93},
{70, 95},
{70, 96},
{70, 97},
{70, 99},
{70, 100},
{70, 101},
{70, 103},
{70, 105},
{70, 108},
{71, 74},
{71, 75},
{71, 76},
{71, 80},
{71, 81},
{71, 84},
{71, 87},
{71, 89},
{71, 91},
{71, 95},
{71, 96},
{71, 97},
{71, 98},
{71, 101},
{71, 102},
{71, 104},
{71, 105},
{71, 107},
{71, 108},
{71, 109},
{71, 110},
{72, 74},
{72, 75},
{72, 76},
{72, 77},
{72, 78},
{72, 79},
{72, 80},
{72, 88},
{72, 89},
{72, 90},
{72, 91},
{72, 93},
{72, 95},
{72, 100},
{72, 102},
{72, 103},
{72, 105},
{72, 106},
{72, 107},
{72, 108},
{72, 109},
{72, 110},
{73, 74},
{73, 75},
{73, 79},
{73, 80},
{73, 81},
{73, 82},
{73, 83},
{73, 84},
{73, 85},
{73, 86},
{73, 89},
{73, 92},
{73, 93},
{73, 96},
{73, 98},
{73, 99},
{73, 100},
{73, 103},
{73, 105},
{73, 108},
{74, 75},
{74, 76},
{74, 79},
{74, 82},
{74, 83},
{74, 84},
{74, 85},
{74, 86},
{74, 88},
{74, 89},
{74, 90},
{74, 93},
{74, 99},
{74, 100},
{74, 103},
{74, 104},
{74, 106},
{74, 107},
{74, 110},
{75, 77},
{75, 80},
{75, 82},
{75, 86},
{75, 87},
{75, 88},
{75, 89},
{75, 90},
{75, 91},
{75, 101},
{75, 102},
{75, 104},
{75, 106},
{75, 107},
{75, 110},
{76, 80},
{76, 81},
{76, 82},
{76, 83},
{76, 84},
{76, 86},
{76, 87},
{76, 90},
{76, 91},
{76, 92},
{76, 93},
{76, 94},
{76, 97},
{76, 99},
{76, 101},
{76, 102},
{76, 103},
{76, 104},
{76, 109},
{77, 78},
{77, 80},
{77, 83},
{77, 84},
{77, 85},
{77, 86},
{77, 88},
{77, 96},
{77, 99},
{77, 100},
{77, 103},
{77, 106},
{77, 108},
{77, 109},
{77, 110},
{78, 80},
{78, 81},
{78, 82},
{78, 85},
{78, 88},
{78, 89},
{78, 91},
{78, 93},
{78, 94},
{78, 95},
{78, 96},
{78, 98},
{78, 101},
{78, 110},
{79, 80},
{79, 81},
{79, 82},
{79, 83},
{79, 84},
{79, 85},
{79, 87},
{79, 100},
{79, 106},
{79, 107},
{79, 108},
{79, 110},
{80, 83},
{80, 85},
{80, 88},
{80, 89},
{80, 91},
{80, 97},
{80, 98},
{80, 99},
{80, 100},
{80, 101},
{80, 103},
{80, 108},
{80, 110},
{81, 84},
{81, 85},
{81, 87},
{81, 89},
{81, 93},
{81, 94},
{81, 96},
{81, 97},
{81, 98},
{81, 99},
{81, 102},
{81, 103},
{81, 104},
{81, 105},
{81, 106},
{81, 107},
{82, 83},
{82, 84},
{82, 85},
{82, 86},
{82, 87},
{82, 88},
{82, 89},
{82, 92},
{82, 93},
{82, 94},
{82, 95},
{82, 98},
{82, 99},
{82, 100},
{82, 101},
{82, 102},
{82, 103},
{82, 106},
{82, 109},
{83, 87},
{83, 90},
{83, 92},
{83, 94},
{83, 95},
{83, 102},
{83, 104},
{83, 105},
{83, 106},
{83, 107},
{83, 110},
{84, 85},
{84, 86},
{84, 90},
{84, 91},
{84, 95},
{84, 99},
{84, 101},
{84, 107},
{84, 108},
{85, 87},
{85, 88},
{85, 91},
{85, 93},
{85, 96},
{85, 97},
{85, 98},
{85, 99},
{85, 101},
{85, 102},
{85, 103},
{85, 104},
{85, 107},
{85, 110},
{86, 87},
{86, 90},
{86, 91},
{86, 93},
{86, 94},
{86, 96},
{86, 99},
{86, 100},
{86, 101},
{86, 103},
{86, 104},
{86, 105},
{86, 107},
{86, 109},
{86, 110},
{87, 91},
{87, 92},
{87, 102},
{87, 103},
{87, 108},
{87, 109},
{87, 110},
{88, 90},
{88, 91},
{88, 92},
{88, 94},
{88, 96},
{88, 98},
{88, 99},
{88, 101},
{88, 103},
{88, 108},
{88, 110},
{89, 91},
{89, 92},
{89, 93},
{89, 94},
{89, 95},
{89, 96},
{89, 100},
{89, 102},
{89, 105},
{89, 107},
{89, 108},
{89, 109},
{90, 92},
{90, 96},
{90, 98},
{90, 99},
{90, 102},
{90, 103},
{90, 104},
{90, 107},
{90, 108},
{90, 109},
{90, 110},
{91, 95},
{91, 96},
{91, 99},
{91, 100},
{91, 101},
{91, 102},
{91, 103},
{91, 104},
{91, 106},
{91, 107},
{91, 108},
{91, 109},
{91, 110},
{92, 93},
{92, 94},
{92, 95},
{92, 98},
{92, 100},
{92, 103},
{92, 104},
{92, 106},
{92, 108},
{92, 110},
{93, 94},
{93, 96},
{93, 99},
{93, 101},
{93, 102},
{93, 104},
{93, 105},
{93, 108},
{93, 110},
{94, 95},
{94, 97},
{94, 100},
{94, 101},
{94, 106},
{94, 107},
{94, 108},
{95, 96},
{95, 97},
{95, 102},
{95, 103},
{95, 104},
{95, 106},
{95, 108},
{95, 109},
{96, 97},
{96, 98},
{96, 99},
{96, 101},
{96, 102},
{96, 103},
{96, 105},
{96, 107},
{96, 108},
{96, 110},
{97, 100},
{97, 102},
{97, 103},
{97, 104},
{97, 105},
{97, 106},
{97, 107},
{97, 108},
{97, 109},
{97, 110},
{98, 99},
{98, 106},
{98, 107},
{98, 110},
{99, 100},
{99, 103},
{99, 104},
{99, 105},
{99, 106},
{100, 101},
{100, 102},
{100, 103},
{100, 104},
{100, 110},
{101, 104},
{101, 109},
{101, 110},
{102, 103},
{102, 105},
{102, 109},
{103, 104},
{103, 106},
{103, 109},
{103, 110},
{104, 108},
{104, 109},
{105, 106},
{105, 109},
{105, 110},
{106, 108},
{106, 110},
{107, 109},
{108, 109},
{108, 110},
{109, 110}}
